2023/05/23
Julia is now 1.9.0
previous version was 1.7.2
2023/11/29
gurobi is now 11.0.0
previous version was 10.0.2
solving instance transportation 5 1 square
presolving:
(round 1, fast)       25 del vars, 25 del conss, 0 add conss, 25 chg bounds, 0 chg sides, 0 chg coeffs, 0 upgd conss, 0 impls, 0 clqs
   (0.0s) symmetry computation started: requiring (bin +, int +, cont +), (fixed: bin -, int -, cont -)
   (0.0s) no symmetry present
presolving (2 rounds: 2 fast, 1 medium, 1 exhaustive):
 25 deleted vars, 25 deleted constraints, 0 added constraints, 25 tightened bounds, 0 added holes, 0 changed sides, 0 changed coefficients
 0 implications, 0 cliques
presolved problem has 50 variables (0 bin, 0 int, 0 impl, 50 cont) and 35 constraints
     10 constraints of type <linear>
     25 constraints of type <nonlinear>
Presolving Time: 0.00

 time | node  | left  |LP iter|LP it/n|mem/heur|mdpt |vars |cons |rows |cuts |sepa|confs|strbr|  dualbound   | primalbound  |  gap   | compl. 
  0.0s|     1 |     0 |   120 |     - |  1656k |   0 | 100 |  35 | 110 |   0 |  0 |   0 |   0 | 7.489793e+01 |      --      |    Inf | unknown
L 0.0s|     1 |     0 |   120 |     - |undercov|   0 | 100 |  35 | 110 |   0 |  0 |   0 |   0 | 7.489793e+01 | 9.920294e+01 |  32.45%| unknown
L 0.0s|     1 |     0 |   120 |     - |undercov|   0 | 100 |  35 | 110 |   0 |  0 |   0 |   0 | 7.489793e+01 | 9.403509e+01 |  25.55%| unknown
L 0.1s|     1 |     0 |   120 |     - |  subnlp|   0 | 100 |  35 | 110 |   0 |  0 |   0 |   0 | 7.489793e+01 | 9.403509e+01 |  25.55%| unknown
  0.1s|     1 |     0 |   145 |     - |  1754k |   0 | 100 |  35 | 134 |  24 |  1 |   0 |   0 | 8.970130e+01 | 9.403509e+01 |   4.83%| unknown
  0.1s|     1 |     0 |   145 |     - |  1754k |   0 | 100 |  35 | 134 |  24 |  1 |   0 |   0 | 8.970130e+01 | 9.403509e+01 |   4.83%| unknown
  0.1s|     1 |     0 |   170 |     - |  1754k |   0 | 100 |  35 | 159 |  49 |  2 |   0 |   0 | 9.297903e+01 | 9.403509e+01 |   1.14%| unknown
  0.1s|     1 |     0 |   191 |     - |  1754k |   0 | 100 |  35 | 183 |  73 |  3 |   0 |   0 | 9.373910e+01 | 9.403509e+01 |   0.32%| unknown
  0.1s|     1 |     0 |   212 |     - |  1820k |   0 | 100 |  35 | 208 |  98 |  4 |   0 |   0 | 9.396531e+01 | 9.403509e+01 |   0.07%| unknown
  0.1s|     1 |     0 |   233 |     - |  1828k |   0 | 100 |  35 | 233 | 123 |  5 |   0 |   0 | 9.401323e+01 | 9.403509e+01 |   0.02%| unknown
  0.1s|     1 |     0 |   255 |     - |  1832k |   0 | 100 |  35 | 255 | 145 |  6 |   0 |   0 | 9.402662e+01 | 9.403509e+01 |   0.01%| unknown
  0.1s|     1 |     0 |   283 |     - |  1832k |   0 | 100 |  35 | 280 | 170 |  7 |   0 |   0 | 9.403362e+01 | 9.403509e+01 |   0.00%| unknown
  0.1s|     1 |     0 |   311 |     - |  1865k |   0 | 100 |  35 | 304 | 194 |  8 |   0 |   0 | 9.403479e+01 | 9.403509e+01 |   0.00%| unknown
  0.1s|     1 |     0 |   331 |     - |  1871k |   0 | 100 |  35 | 324 | 214 |  9 |   0 |   0 | 9.403500e+01 | 9.403509e+01 |   0.00%| unknown

SCIP Status        : solving was interrupted [gap limit reached]
Solving Time (sec) : 0.08
Solving Nodes      : 1
Primal Bound       : +9.40350867426973e+01 (4 solutions)
Dual Bound         : +9.40350018421388e+01
Gap                : 0.00 %
primal_bound = 94.0350867426973, dual_bound = 94.03500184213877, gap = 9.028604266195507e-5, time = 2.98
